SCIP Status        : solving was interrupted [time limit reached]
Total Time         :    3600.01
  solving          :    3600.00
  presolving       :       0.41 (included in solving)
  reading          :       0.01
  copying          :       1.09 (83 #copies) (minimal 0.00, maximal 0.04, average 0.01)
Original Problem   :
  Problem name     : bbbenchmark/pw09_100.1.cut
  Variables        : 101 (100 binary, 0 integer, 0 implicit integer, 1 continuous)
  Constraints      : 1 initial, 1 maximal
  Objective        : minimize, 1 non-zeros (abs.min = 1, abs.max = 1)
Presolved Problem  :
  Problem name     : t_bbbenchmark/pw09_100.1.cut
  Variables        : 1290 (100 binary, 0 integer, 1140 implicit integer, 50 continuous)
  Constraints      : 1288 initial, 5114 maximal
  Objective        : minimize, 1 non-zeros (abs.min = 1, abs.max = 1)
  Nonzeros         : 11585 constraint, 202 clique table
Presolvers         :   ExecTime  SetupTime  Calls  FixedVars   AggrVars   ChgTypes  ChgBounds   AddHoles    DelCons    AddCons   ChgSides   ChgCoefs
  boundshift       :       0.00       0.00      0          0          0          0          0          0          0          0          0          0
  convertinttobin  :       0.00       0.00      0          0          0          0          0          0          0          0          0          0
  domcol           :       0.00       0.00      1          0          0          0          0          0          0          0          0          0
  dualagg          :       0.00       0.00      0          0          0          0          0          0          0          0          0          0
  dualcomp         :       0.00       0.00      1          0          0          0          0          0          0          0          0          0
  dualinfer        :       0.00       0.00      0          0          0          0          0          0          0          0          0          0
  dualsparsify     :       0.00       0.00      1          0          0          0          0          0          0          0          0          0
  gateextraction   :       0.00       0.00      0          0          0          0          0          0          0          0          0          0
  implics          :       0.00       0.00      2          0          0          0          0          0          0          0          0          0
  inttobinary      :       0.00       0.00      0          0          0          0          0          0          0          0          0          0
  qpkktref         :       0.00       0.00      0          0          0          0          0          0          0          0          0          0
  redvub           :       0.00       0.00      0          0          0          0          0          0          0          0          0          0
  sparsify         :       0.00       0.00      1          0          0          0          0          0          0          0          0          0
  stuffing         :       0.00       0.00      0          0          0          0          0          0          0          0          0          0
  trivial          :       0.00       0.00      4          0          0          0          0          0          0          0          0          0
  tworowbnd        :       0.00       0.00      0          0          0          0          0          0          0          0          0          0
  dualfix          :       0.00       0.00      4          0          0          0          0          0          0          0          0          0
  genvbounds       :       0.00       0.00      0          0          0          0          0          0          0          0          0          0
  probing          :       0.21       0.00      1          0          0          0          0          0          0          0          0          0
  pseudoobj        :       0.00       0.00      1          0          0          0          1          0          0          0          0          0
  symmetry         :       0.00       0.00      0          0          0          0          0          0          0          0          0          0
  vbounds          :       0.00       0.00      1          0          0          0          0          0          0          0          0          0
  varbound         :       0.00       0.00      2          0          0          0          0          0          0          0          0          0
  and              :       0.00       0.00      2          0          0          0          0          0          0          0          0          0
  linear           :       0.02       0.00      2          0          0          0          0          0          0          0          0          0
  logicor          :       0.00       0.00      0          0          0          0          0          0          0          0          0          0
  bounddisjunction :       0.00       0.00      0          0          0          0          0          0          0          0          0          0
  nonlinear        :       0.15       0.00      5          0          0          0          1          0          0       1287          0          0
  benders          :       0.00       0.00      0          0          0          0          0          0          0          0          0          0
  components       :       0.01       0.00      1          0          0          0          0          0          0          0          0          0
  root node        :          -          -      -          0          -          -          8          -          -          -          -          -
Constraints        :     Number  MaxNumber  #Separate #Propagate    #EnfoLP    #EnfoRelax  #EnfoPS    #Check   #ResProp    Cutoffs    DomReds       Cuts    Applied      Conss   Children
  benderslp        :          0          0          0          0     564718          0          0      41967          0          0          0          0          0          0          0
  integral         :          0          0          0          0     564718          0          0      41967          0          0         25          0          0          2    1129382
  varbound         :         49         49         38    2390276          0          0          0       3649          0          0     293132          0          0          0          0
  and              :       1140       1140     614686    2425764          4          0          0       3649     174711          0     569950        970        723          0          0
  linear           :         99+       169         38    2425885          4          0          0       3647      29458        585   13092204          0          0          0          0
  logicor          :          0+      1876          0     163188          0          0          0          0          3        318          0          0          0          0          0
  bounddisjunction :          0+      1950          0     205027          0          0          0          0          4         99          0          0          0          0          0
  benders          :          0          0          0          0          4          0          0         18          0          0          0          0          0          0          0
  countsols        :          0          0          0          0          4          0          0         18          0          0          0          0          0          0          0
  components       :          0          0          0          0          0          0          0          0          0          0          0          0          0          0          0
Constraint Timings :  TotalTime  SetupTime   Separate  Propagate     EnfoLP     EnfoPS     EnfoRelax   Check    ResProp    SB-Prop
  benderslp        :       0.48       0.00       0.00       0.00       0.44       0.00       0.00       0.04       0.00       0.00
  integral         :      95.64       0.00       0.00       0.00      95.44       0.00       0.00       0.20       0.00       0.00
  varbound         :       4.61       0.00       0.00       4.55       0.00       0.00       0.00       0.04       0.00       0.02
  and              :     157.96       0.00     127.29      29.68       0.00       0.00       0.00       0.61       0.09       0.29
  linear           :      62.61       0.00       0.03      62.42       0.00       0.00       0.00       0.01       0.03       0.12
  logicor          :       6.30       0.00       0.00       6.30       0.00       0.00       0.00       0.00       0.00       0.00
  bounddisjunction :       8.43       0.00       0.00       8.43       0.00       0.00       0.00       0.00       0.00       0.00
  benders          :       0.00       0.00       0.00       0.00       0.00       0.00       0.00       0.00       0.00       0.00
  countsols        :       0.00       0.00       0.00       0.00       0.00       0.00       0.00       0.00       0.00       0.00
  components       :       0.45       0.00       0.00       0.45       0.00       0.00       0.00       0.00       0.00       0.00
Propagators        : #Propagate   #ResProp    Cutoffs    DomReds
  dualfix          :          2          0          0          0
  genvbounds       :          0          0          0          0
  nlobbt           :          0          0          0          0
  obbt             :          0          0          0          0
  probing          :          0          0          0          0
  pseudoobj        :    2494838          1          0         32
  redcost          :    1210289          0          0     255699
  rootredcost      :         11          0          0          0
  symmetry         :          0          0          0          0
  vbounds          :     397817          0          0          0
Propagator Timings :  TotalTime  SetupTime   Presolve  Propagate    ResProp    SB-Prop
  dualfix          :       0.00       0.00       0.00       0.00       0.00       0.00
  genvbounds       :       1.63       0.00       0.00       1.62       0.00       0.01
  nlobbt           :       0.00       0.00       0.00       0.00       0.00       0.00
  obbt             :       0.00       0.00       0.00       0.00       0.00       0.00
  probing          :       0.21       0.00       0.21       0.00       0.00       0.00
  pseudoobj        :       2.76       0.00       0.00       2.76       0.00       0.00
  redcost          :      39.87       0.00       0.00      39.87       0.00       0.00
  rootredcost      :       1.80       0.00       0.00       1.80       0.00       0.00
  symmetry         :       1.00       0.00       0.00       1.00       0.00       0.00
  vbounds          :       1.83       0.00       0.00       1.83       0.00       0.00
Conflict Analysis  :       Time      Calls    Success    DomReds  Conflicts   Literals    Reconvs ReconvLits   Dualrays   Nonzeros   LP Iters   (pool size: [10000,10000])
  propagation      :       0.00        417        272          -        407       76.2          0        0.0          -          -          -
  infeasible LP    :       0.86        738        738          -      24806      134.3          0        0.0       1193      144.4          0
  bound exceed. LP :      11.54       4422       4166          -      46596       97.6          0        0.0          0        0.0      58469
  strong branching :       0.00          0          0          -          0        0.0          0        0.0          -          -          0
  pseudo solution  :       0.00          0          0          -          0        0.0          0        0.0          -          -          -
  applied globally :       0.19          -          -          0      15364       93.8          -          -       1193          -          -
  applied locally  :          -          -          -          0          0        0.0          -          -          0          -          -
Separators         :   ExecTime  SetupTime      Calls  RootCalls    Cutoffs    DomReds  FoundCuts ViaPoolAdd  DirectAdd    Applied ViaPoolApp  DirectApp      Conss
  cut pool         :       3.86          -      57335         62          -          -      27731    1118339          -          -          -          -          -    (maximal pool size:       2453)
  aggregation      :     112.65       0.00       4742         38          0          0        293       4049          0         90         90          0          0
  > cmir           :          -          -          -          -          -          -          -       4049          0         90         90          0          -
  > flowcover      :          -          -          -          -          -          -          -          0          0          0          0          0          -
  > knapsackcover  :          -          -          -          -          -          -          -          0          0          0          0          0          -
  cgmip            :       0.00       0.00          0          0          0          0          0          0          0          0          0          0          0
  clique           :       0.00       0.00         38         38          0          0          0          0          0          0          0          0          0
  closecuts        :       0.00       0.00          0          0          0          0          0          0          0          0          0          0          0
  convexproj       :       0.00       0.00          0          0          0          0          0          0          0          0          0          0          0
  disjunctive      :       0.00       0.00          0          0          0          0          0          0          0          0          0          0          0
  eccuts           :       0.00       0.00          0          0          0          0          0          0          0          0          0          0          0
  gauge            :       0.00       0.00          0          0          0          0          0          0          0          0          0          0          0
  gomory           :       0.00       0.00          0          0          0          0          0          0          0          0          0          0          0
  > gomorymi       :          -          -          -          -          -          -          -          0          0          0          0          0          -
  > strongcg       :          -          -          -          -          -          -          -          0          0          0          0          0          -
  impliedbounds    :       0.20       0.00       4742         38          0          0          0          0          0          0          0          0          0
  interlattice     :       0.00       0.00          0          0          0          0          0          0          0          0          0          0          0
  interminor       :       0.00       0.00          0          0          0          0          0          0          0          0          0          0          0
  intersub         :       0.46       0.00         17         17          0          0         16          0         16         16          0         16          0
  intobj           :       0.00       0.00          0          0          0          0          0          0          0          0          0          0          0
  mcf              :       0.00       0.00          1          1          0          0          0          0          0          0          0          0          0
  minor            :       0.00       0.00          0          0          0          0          0          0          0          0          0          0          0
  mixing           :       0.01       0.00       4742         38          0          0          0          0          0          0          0          0          0
  oddcycle         :       0.00       0.00          0          0          0          0          0          0          0          0          0          0          0
  rapidlearning    :       0.04       0.00          0          0          0          0          0          0          0          0          0          0          0
  rlt              :       0.00       0.00         10         10          0          0          0          0          0          0          0          0          0
  zerohalf         :      15.25       0.00       4214         20          0          0      27438    1114290          0     223369     223369          0          0
Cutselectors       :   ExecTime  SetupTime      Calls  RootCalls   Selected     Forced   Filtered  RootSelec   RootForc   RootFilt 
  hybrid           :       0.64       0.00      30957         37     224198          0     895127        139          0          4
Pricers            :   ExecTime  SetupTime      Calls       Vars
  problem variables:       0.00          -          0          0
Branching Rules    :   ExecTime  SetupTime   BranchLP  BranchExt   BranchPS    Cutoffs    DomReds       Cuts      Conss   Children
  allfullstrong    :       0.00       0.00          0          0          0          0          0          0          0          0
  cloud            :       0.00       0.00          0          0          0          0          0          0          0          0
  distribution     :       0.00       0.00          0          0          0          0          0          0          0          0
  fullstrong       :       0.00       0.00          0          0          0          0          0          0          0          0
  inference        :       0.00       0.00          0          0          0          0          0          0          0          0
  leastinf         :       0.00       0.00          0          0          0          0          0          0          0          0
  lookahead        :       0.00       0.00          0          0          0          0          0          0          0          0
  mostinf          :       0.00       0.00          0          0          0          0          0          0          0          0
  multaggr         :       0.00       0.00          0          0          0          0          0          0          0          0
  nodereopt        :       0.00       0.00          0          0          0          0          0          0          0          0
  pscost           :       0.00       0.00          0          0          0          0          0          0          0          0
  random           :       0.00       0.00          0          0          0          0          0          0          0          0
  relpscost        :      94.06       0.00     564714          0          0          0         25          0          2    1129382
  vanillafullstrong:       0.00       0.00          0          0          0          0          0          0          0          0
Primal Heuristics  :   ExecTime  SetupTime      Calls      Found       Best
  LP solutions     :       0.00          -          -          4          4
  relax solutions  :       0.00          -          -          0          0
  pseudo solutions :       0.00          -          -          0          0
  strong branching :       0.02          -          -          0          0
  actconsdiving    :       0.00       0.00          0          0          0
  adaptivediving   :       7.71       0.00        117          1          1
  alns             :       1.78       0.00         27          0          0
  bound            :       0.00       0.00          0          0          0
  clique           :       0.01       0.00          1          0          0
  coefdiving       :       0.00       0.00          0          0          0
  completesol      :       0.00       0.00          0          0          0
  conflictdiving   :     111.58       0.00        966          0          0
  crossover        :       5.77       0.00          7          1          1
  dins             :       0.00       0.00          0          0          0
  distributiondivin:      65.67       0.00        498          0          0
  dps              :       0.00       0.00          0          0          0
  dualval          :       0.00       0.00          0          0          0
  farkasdiving     :       0.06       0.00          0          0          0
  feaspump         :       0.11       0.00          1          0          0
  fixandinfer      :       0.00       0.00          0          0          0
  fracdiving       :      37.14       0.00        440          0          0
  gins             :       0.62       0.00          0          0          0
  guideddiving     :      35.83       0.00        406          0          0
  indicator        :       0.53       0.00          0          0          0
  indicatordiving  :       0.00       0.00          0          0          0
  intdiving        :       0.00       0.00          0          0          0
  intshifting      :       0.61       0.00        141          0          0
  linesearchdiving :      32.27       0.00        553          0          0
  localbranching   :       0.00       0.00          0          0          0
  locks            :       0.01       0.00          1          0          0
  lpface           :       0.50       0.00          0          0          0
  mpec             :      72.16       0.00         11          0          0
  multistart       :       0.00       0.00          0          0          0
  mutation         :       0.00       0.00          0          0          0
  nlpdiving        :      18.78       0.00          3          1          0
  objpscostdiving  :      23.27       0.00        104          3          1
  octane           :       0.00       0.00          0          0          0
  ofins            :       0.54       0.00          0          0          0
  oneopt           :       0.45       0.00         13          0          0
  padm             :       0.00       0.00          0          0          0
  proximity        :       0.00       0.00          0          0          0
  pscostdiving     :      38.83       0.00        332          3          3
  randrounding     :       2.09       0.00      41962          0          0
  rens             :       0.00       0.00          0          0          0
  reoptsols        :       0.00       0.00          0          0          0
  repair           :       0.00       0.00          0          0          0
  rins             :       2.56       0.00         49          0          0
  rootsoldiving    :      13.03       0.00        200          2          0
  rounding         :       2.36       0.00      10802          0          0
  shiftandpropagate:       0.00       0.00          0          0          0
  shifting         :      22.89       0.00       9686          1          1
  simplerounding   :       0.34       0.00          0          0          0
  subnlp           :     443.66       0.00          0          0          0
  trivial          :       0.02       0.00          2          2          2
  trivialnegation  :       0.00       0.00          0          0          0
  trustregion      :       0.00       0.00          0          0          0
  trysol           :       0.78       0.00          0          0          0
  twoopt           :       0.00       0.00          0          0          0
  undercover       :       4.28       0.00          1          1          1
  vbounds          :       0.00       0.00          0          0          0
  veclendiving     :      34.50       0.00        790          0          0
  zeroobj          :       0.00       0.00          0          0          0
  zirounding       :       0.78       0.00       1000          0          0
  other solutions  :          -          -          -          0          -
Diving (single)    :      Calls      Nodes   LP Iters Backtracks  Conflicts   MinDepth   MaxDepth   AvgDepth  RoundSols  NLeafSols  MinSolDpt  MaxSolDpt  AvgSolDpt
  actconsdiving    :          0          -          -          -          -          -          -          -          -          -          -          -          -
  coefdiving       :          0          -          -          -          -          -          -          -          -          -          -          -          -
  conflictdiving   :        966      43282    1216274        899      16286         62         88       77.7          0          -          -          -          -
  distributiondivin:        498      21543     409578        601       8361         61         92       75.4          0          -          -          -          -
  farkasdiving     :          0          -          -          -          -          -          -          -          -          -          -          -          -
  fracdiving       :        440      54646     410990        151       1240         73        484      154.8          0          -          -          -          -
  guideddiving     :        406      48862     411726         27        713         70        406      149.9          0          -          -          -          -
  indicatordiving  :          0          -          -          -          -          -          -          -          -          -          -          -          -
  linesearchdiving :        553      30887     408807         82      12294         71        106       87.7          0          -          -          -          -
  pscostdiving     :        332      15734     450049        322       5288         71         94       80.8          0          3         80         89       85.0
  veclendiving     :        790      37928     406847        513      26642         67         95       80.2          0          -          -          -          -
Diving (adaptive)  :      Calls      Nodes   LP Iters Backtracks  Conflicts   MinDepth   MaxDepth   AvgDepth  RoundSols  NLeafSols  MinSolDpt  MaxSolDpt  AvgSolDpt
  actconsdiving    :         13        636       8584         13        153         72         84       77.2          0          -          -          -          -
  coefdiving       :         14        793       7605         12        445         71         92       80.5          0          -          -          -          -
  conflictdiving   :          0          -          -          -          -          -          -          -          -          -          -          -          -
  distributiondivin:          0          -          -          -          -          -          -          -          -          -          -          -          -
  farkasdiving     :          0          -          -          -          -          -          -          -          -          -          -          -          -
  fracdiving       :          2        302       2389          0          0        163        170      166.5          0          -          -          -          -
  guideddiving     :          6        636       5719          1          4         80        173      135.7          0          -          -          -          -
  indicatordiving  :          0          -          -          -          -          -          -          -          -          -          -          -          -
  linesearchdiving :         61       3269      43898          4       1200         70         99       86.9          0          -          -          -          -
  pscostdiving     :         14        467      11118          7         99         69         86       77.4          0          1         80         80       80.0
  veclendiving     :          7        408       4643          6        257         69         86       78.6          0          -          -          -          -
Neighborhoods      :      Calls  SetupTime  SolveTime SolveNodes       Sols       Best       Exp3  EpsGreedy        UCB TgtFixRate  Opt  Inf Node Stal  Sol  Usr Othr Actv
  rens             :          2       0.02       0.04         52          0          0    0.00000   -1.00000    0.47463      0.850    0    1    0    1    0    0    0    1
  rins             :          2       0.04       0.10        143          0          0    0.00000   -1.00000    0.43763      0.850    0    1    0    1    0    0    0    1
  mutation         :          2       0.01       0.11         88          0          0    0.00000   -1.00000    0.46608      0.850    0    1    0    1    0    0    0    1
  localbranching   :          4       0.06       0.08        135          0          0    0.00000   -1.00000    0.47285      0.722    0    2    0    2    0    0    0    1
  crossover        :          4       0.05       0.29         77          0          0    0.00000   -1.00000    0.45480      0.522    0    3    0    1    0    0    0    1
  proximity        :          6       0.19       0.26        195          0          0    0.00000   -1.00000    0.44792      0.637    0    4    0    2    0    0    0    1
  zeroobjective    :          6       0.18       0.15        174          0          0    0.00000   -1.00000    0.45219      0.637    0    4    0    2    0    0    0    1
  dins             :          1       0.00       0.00          0          0          0    0.00000   -1.00000    0.07302      0.900    0    0    0    0    0    0    1    1
  trustregion      :          0       0.00       0.00          0          0          0    0.00000   -1.00000    1.00000      0.900    0    0    0    0    0    0    0    0
Expressions        :   #IntEval  IntEvalTi   #RevProp  RevPropTi    DomReds    Cutoffs  #Estimate  EstimTime  Branching  #Simplify SimplifyTi Simplified
  pow              :          0       0.00          0       0.00          0          0          0       0.00          0          0       0.00          0
  prod             :      17820       0.00          0       0.00          0          0          0       0.00          0      10050       0.00          0
  sum              :          8       0.00          2       0.00          0          0          0       0.00          0          3       0.04          2
  var              :       4679       0.00          0       0.00          0          0          0       0.00          0      21592       0.01          0
  varidx           :          0       0.00          0       0.00          0          0          0       0.00          0          0       0.00          0
LP                 :       Time      Calls Iterations  Iter/call   Iter/sec  Time-0-It Calls-0-It    ItLimit
  primal LP        :      90.30      24400          0       0.00       0.00      90.21      24400
  dual LP          :    1410.23     908937    8008620       9.32    5678.95      14.90      49927
  lex dual LP      :       0.00          0          0       0.00          -
  barrier LP       :       0.00          0          0       0.00          -       0.00          0
  resolve instable :       0.00          0          0       0.00          -
  diving/probing LP:     313.11      25318    4102919     162.06   13103.76
  strong branching :      11.83       1299      91043      70.09    7695.94          -          -       1396
    (at root node) :          -         19       3487     183.53          -
  conflict analysis:       5.76       6487      58469       9.01   10150.87
NLP relaxation     :
  solve time       :      18.37 (27 calls)
  convexity        :  nonconvex (148 linear rows, 0 convex ineq., 0 nonconvex ineq., 1140 nonlinear eq. or two-sided ineq.)
NLP Solvers        :  #Problems  ProblemTi    #Solves  SolveTime      #Iter  Time/Iter      #Okay #TimeLimit #IterLimit #LObjLimit #Interrupt  #NumError #EvalError  #OutOfMem #LicenseEr #OtherTerm   #GlobOpt    #LocOpt  #Feasible #LocInfeas #GlobInfea #Unbounded   #Unknown
  ipopt            :         12      20.32         67      90.39       1798       0.05         63          0          4          0          0          0          0          0          0          0          0         44          2         18          0          0          3
B&B Tree           :
  number of runs   :          1
  nodes            :     828060 (564691 internal, 263369 leaves)
  feasible leaves  :          4
  infeas. leaves   :          9
  objective leaves :     263356
  nodes (total)    :     828060 (564691 internal, 263369 leaves)
  nodes left       :     301303
  max depth        :         85
  max depth (total):         85
  backtracks       :     155262 (18.8%)
  early backtracks :          0 (0.0%)
  nodes exc. ref.  :          0 (0.0%)
  delayed cutoffs  :          0
  repropagations   :          7 (33 domain reductions, 0 cutoffs)
  avg switch length:       7.04
  switching time   :     245.26
Estim. Tree Size   :    1656158
Estimation Tree    : 1129383 nodes (828079 visited, 564691 internal, 263388 leaves, 301304 open), weight: 0.0000 completed 0.0227
Estimations        :      estim      value      trend resolution     smooth
  wbe              :         in          -          -          -          -
  tree-profile     :         -1          -          -          -          -
  gap              :   37847790    0.60623    0.00001        512   37767850
  tree-weight      :    1656158    0.00000    0.00000        512    1653771
  leaf-frequency   :   15417786    0.31807    0.00001        512   16722009
  ssg              :   77557004    0.96418   -0.00001        512   76231359
  open-nodes       :    1656158 301304.00000  291.85718        512    1653771
Root Node          :
  First LP value   : -5.44713804713805e+00
  First LP Iters   :       2193 (12183.33 Iter/sec)
  First LP Time    :       0.18
  Final Dual Bound : -5.35293820609357e+00
  Final Root Iters :       3155
  Root LP Estimate : -2.74342888631810e+00
Solution           :
  Solutions found  :         19 (14 improvements)
  First Solution   : +1.00000000000000e+05   (in run 1, after 0 nodes, 0.04 seconds, depth 0, found by <trivial>)
  Gap First Sol.   :   infinite
  Gap Last Sol.    :      75.64 %
  Primal Bound     : -2.92592592592593e+00   (in run 1, after 15686 nodes, 265.28 seconds, depth 80, found by <relaxation>)
  Dual Bound       : -4.82639937037762e+00
  Gap              :      64.95 %
Integrals          :      Total       Avg%
  primal-dual      :  146209.82      40.61
  primal-ref       :          -          - (not evaluated)
  dual-ref         :          -          - (not evaluated)
